c Sample MAX-SAT instance (UF20-style) bundled with EDAF
p cnf 20 60
1 -3 5 0
-1 2 -4 0
3 4 -6 0
-2 -5 7 0
8 -9 10 0
-7 11 -12 0
6 -8 13 0
-10 12 -14 0
9 -11 15 0
-13 14 -16 0
2 6 -17 0
-3 7 18 0
4 -8 -19 0
-5 9 20 0
10 -15 16 0
-11 13 -17 0
12 -14 18 0
-6 -16 19 0
7 15 -20 0
-2 8 11 0
1 -12 17 0
-4 6 -18 0
5 -7 19 0
-8 10 -20 0
9 -13 16 0
-14 15 -17 0
2 -9 18 0
-1 11 -19 0
3 -10 20 0
-5 12 -16 0
4 -11 17 0
-6 13 -18 0
7 -12 19 0
-8 14 -20 0
9 -15 17 0
-10 16 -18 0
11 -13 19 0
-14 20 -2 0
15 -17 3 0
-16 18 -4 0
5 -19 7 0
-6 20 -8 0
9 -17 11 0
-10 18 -12 0
13 -19 15 0
-14 20 -16 0
1 6 -11 0
-2 7 12 0
3 -8 -13 0
-4 9 14 0
5 -10 15 0
-6 11 -16 0
7 -12 17 0
-8 13 -18 0
9 -14 19 0
-10 15 -20 0
2 -5 8 0
-3 6 -9 0
4 -7 10 0
-1 16 -19 0
